c Sudoku solution
p cnf 729 0
121 0
167 0
245 0
259 0
272 0
283 0
325 0
348 0
436 0
512 0
549 0
573 0
615 0
629 0
647 0
662 0
688 0
711 0
734 0
757 0
793 0
842 0
746 0
876 0
884 0
922 0
728 0
916 0
782 0
226 0
492 0
939 0
835 0
954 0
995 0
779 0
765 0
869 0
489 0
199 0
319 0
261 0
674 0
394 0
214 0
144 0
585 0
455 0
175 0
186 0
298 0
237 0
978 0
858 0
941 0
963 0
891 0
987 0
443 0
651 0
471 0
696 0
597 0
633 0
531 0
418 0
427 0
524 0
464 0
817 0
823 0
113 0
332 0
138 0
152 0
353 0
366 0
556 0
568 0
377 0
381 0
